NAME : gr120.15392.tour
COMMENT : Cost = 1558_15392
COMMENT : Found by LKH [Keld Helsgaun] Thu Nov 16 17:33:46 2017
TYPE : TOUR
DIMENSION : 139
TOUR_SECTION
1
61
121
29
122
16
123
120
124
30
125
32
126
28
127
24
128
60
129
111
96
90
6
84
35
10
99
104
36
55
54
8
138
116
70
71
89
110
112
106
62
37
67
83
57
73
114
101
102
48
47
26
135
46
20
113
69
65
68
91
58
100
33
52
79
43
107
137
74
87
56
41
42
98
44
75
14
130
92
131
34
4
80
5
63
39
95
64
82
119
134
105
72
23
51
13
49
118
17
50
132
45
78
94
86
22
85
18
108
25
19
117
31
66
81
15
59
136
27
77
12
97
53
3
133
2
93
109
88
21
115
11
9
103
38
7
40
139
76
-1
EOF
